c Este es el tablero 0 en CNF
p cnf 729 216
-217 -55 0 -217 -64 0 -217 -73 0 -217 -136 0 -217 -145 0 -217 -154 0 -217 -226 0 -217 -235 0 -218 -56 0 -218 -65 0 -218 -74 0 -218 -137 0 -218 -146 0 -218 -155 0 -218 -227 0 -218 -236 0 -219 -57 0 -219 -66 0 -219 -75 0 -219 -138 0 -219 -147 0 -219 -156 0 -219 -228 0 -219 -237 0 -220 -58 0 -220 -67 0 -220 -76 0 -220 -139 0 -220 -148 0 -220 -157 0 -220 -229 0 -220 -238 0 -221 -59 0 -221 -68 0 -221 -77 0 -221 -140 0 -221 -149 0 -221 -158 0 -221 -230 0 -221 -239 0 -222 -60 0 -222 -69 0 -222 -78 0 -222 -141 0 -222 -150 0 -222 -159 0 -222 -231 0 -222 -240 0 -223 -61 0 -223 -70 0 -223 -79 0 -223 -142 0 -223 -151 0 -223 -160 0 -223 -232 0 -223 -241 0 -224 -62 0 -224 -71 0 -224 -80 0 -224 -143 0 -224 -152 0 -224 -161 0 -224 -233 0 -224 -242 0 -225 -63 0 -225 -72 0 -225 -81 0 -225 -144 0 -225 -153 0 -225 -162 0 -225 -234 0 -225 -243 0 
-388 -298 0 -388 -307 0 -388 -316 0 -388 -379 0 -388 -397 0 -388 -460 0 -388 -469 0 -388 -478 0 -389 -299 0 -389 -308 0 -389 -317 0 -389 -380 0 -389 -398 0 -389 -461 0 -389 -470 0 -389 -479 0 -390 -300 0 -390 -309 0 -390 -318 0 -390 -381 0 -390 -399 0 -390 -462 0 -390 -471 0 -390 -480 0 -391 -301 0 -391 -310 0 -391 -319 0 -391 -382 0 -391 -400 0 -391 -463 0 -391 -472 0 -391 -481 0 -392 -302 0 -392 -311 0 -392 -320 0 -392 -383 0 -392 -401 0 -392 -464 0 -392 -473 0 -392 -482 0 -393 -303 0 -393 -312 0 -393 -321 0 -393 -384 0 -393 -402 0 -393 -465 0 -393 -474 0 -393 -483 0 -394 -304 0 -394 -313 0 -394 -322 0 -394 -385 0 -394 -403 0 -394 -466 0 -394 -475 0 -394 -484 0 -395 -305 0 -395 -314 0 -395 -323 0 -395 -386 0 -395 -404 0 -395 -467 0 -395 -476 0 -395 -485 0 -396 -306 0 -396 -315 0 -396 -324 0 -396 -387 0 -396 -405 0 -396 -468 0 -396 -477 0 -396 -486 0 
-451 -271 0 -451 -280 0 -451 -289 0 -451 -352 0 -451 -361 0 -451 -370 0 -451 -433 0 -451 -442 0 -452 -272 0 -452 -281 0 -452 -290 0 -452 -353 0 -452 -362 0 -452 -371 0 -452 -434 0 -452 -443 0 -453 -273 0 -453 -282 0 -453 -291 0 -453 -354 0 -453 -363 0 -453 -372 0 -453 -435 0 -453 -444 0 -454 -274 0 -454 -283 0 -454 -292 0 -454 -355 0 -454 -364 0 -454 -373 0 -454 -436 0 -454 -445 0 -455 -275 0 -455 -284 0 -455 -293 0 -455 -356 0 -455 -365 0 -455 -374 0 -455 -437 0 -455 -446 0 -456 -276 0 -456 -285 0 -456 -294 0 -456 -357 0 -456 -366 0 -456 -375 0 -456 -438 0 -456 -447 0 -457 -277 0 -457 -286 0 -457 -295 0 -457 -358 0 -457 -367 0 -457 -376 0 -457 -439 0 -457 -448 0 -458 -278 0 -458 -287 0 -458 -296 0 -458 -359 0 -458 -368 0 -458 -377 0 -458 -440 0 -458 -449 0 -459 -279 0 -459 -288 0 -459 -297 0 -459 -360 0 -459 -369 0 -459 -378 0 -459 -441 0 -459 -450 
